Problem:    
Rows:       260
Columns:    89 (72 integer, 72 binary)
Non-zeros:  812
Status:     INTEGER OPTIMAL
Objective:  value = 4.605022 (MINimum)

   No.   Row name        Activity     Lower bound   Upper bound
------ ------------    ------------- ------------- -------------
     1 r.5                   1004.61             0               
     2 r.6                  -998.638      -999.135               
     3 r.7                   4.60502             0               
     4 r.8                   1.36211      -991.543               
     5 r.9                   1004.61             0               
     6 r.10                 -996.777      -999.155               
     7 r.11                  4.60502             0               
     8 r.12                  3.22312      -991.419               
     9 r.13                  1004.61             0               
    10 r.14                 -999.503      -999.925               
    11 r.15                  4.60502             0               
    12 r.16                  1.36211      -998.379               
    13 r.17                  1004.61             0               
    14 r.18                 -997.622      -999.897               
    15 r.19                  4.60502             0               
    16 r.20                 -997.638      -997.684               
    17 r.21                  1004.61             0               
    18 r.22                 -999.578      -999.624               
    19 r.23                  4.60502             0               
    20 r.24                  1.36211      -996.321               
    21 r.25                  1004.61             0               
    22 r.26                 -999.954      -999.954               
    23 r.27                  4.60502             0               
    24 r.28                   0.0461      -998.913               
    25 r.29                  1004.61             0               
    26 r.30                 -995.395      -998.618               
    27 r.31                  4.60502             0               
    28 r.32                  4.60502      -996.612               
    29 r.33                  4.60502             0               
    30 r.34                  4.60502      -998.646               
    31 r.35                  1004.61             0               
    32 r.36                 -995.395      -996.757               
    33 r.37                        1             1             = 
    34 r.38                        1             1             = 
    35 r.39                        1             1             = 
    36 r.40                        1             1             = 
    37 r.41                        1             1             = 
    38 r.42                        1             1             = 
    39 r.43                        1             1             = 
    40 r.44                        1             1             = 
    41 r.45                        2             2               
    42 r.46                       -2         -1001               
    43 r.47                 -998.139      -999.155               
    44 r.48                     1000             2               
    45 r.49                    -1000         -1001               
    46 r.50                  2001.86      -991.419               
    47 r.51                        2             2               
    48 r.52                       -2         -1001               
    49 r.53                -0.865111      -999.925               
    50 r.54                     1000             2               
    51 r.55                    -1000         -1001               
    52 r.56                     2000      -998.379               
    53 r.57                        2             2               
    54 r.58                       -2         -1001               
    55 r.59                 -998.984      -999.897               
    56 r.60                     1000             2               
    57 r.61                    -1000         -1001               
    58 r.62                     1001      -997.684               
    59 r.63                        2             2               
    60 r.64                       -2         -1001               
    61 r.65                -0.940311      -999.624               
    62 r.66                     1000             2               
    63 r.67                    -1000         -1001               
    64 r.68                     2000      -996.321               
    65 r.69                 -998.684      -999.135               
    66 r.70                  1.31601      -991.543               
    67 r.71                 -998.684      -999.135               
    68 r.72                  1.31601      -991.543               
    69 r.73                 -996.757      -998.618               
    70 r.74                  3.24291      -996.612               
    71 r.75                 -996.757      -998.618               
    72 r.76                  3.24291      -996.612               
    73 r.77                  3.24291      -998.646               
    74 r.78                 -996.757      -996.757               
    75 r.79                  3.24291      -998.646               
    76 r.80                 -996.757      -996.757               
    77 r.81                        2             2               
    78 r.82                       -2         -1001               
    79 r.83                  998.139      0.865111               
    80 r.84                     1000             2               
    81 r.85                    -1000         -1001               
    82 r.86                  1998.14       8.45737               
    83 r.87                        2             2               
    84 r.88                       -2         -1001               
    85 r.89                 -2.72612      -999.925               
    86 r.90                     1000             2               
    87 r.91                    -1000         -1001               
    88 r.92                  1998.14      -998.379               
    89 r.93                        2             2               
    90 r.94                       -2         -1001               
    91 r.95                -0.845278      -999.897               
    92 r.96                     1000             2               
    93 r.97                    -1000         -1001               
    94 r.98                  999.139      -997.684               
    95 r.99                        2             2               
    96 r.100                      -2         -1001               
    97 r.101                -2.80132      -999.624               
    98 r.102                    1000             2               
    99 r.103                   -1000         -1001               
   100 r.104                 1998.14      -996.321               
   101 r.105                -996.823      -999.155               
   102 r.106                 3.17702      -991.419               
   103 r.107                -996.823      -999.155               
   104 r.108                 3.17702      -991.419               
   105 r.109                -998.618      -998.618               
   106 r.110                  1.3819      -996.612               
   107 r.111                -998.618      -998.618               
   108 r.112                  1.3819      -996.612               
   109 r.113                    1001             2               
   110 r.114                   -1001         -1001               
   111 r.115                 2001.38      -998.646               
   112 r.116                    1001             2               
   113 r.117                   -1001         -1001               
   114 r.118                 2001.38      -996.757               
   115 r.119                       2             2               
   116 r.120                      -2         -1001               
   117 r.121                0.865111      0.865111               
   118 r.122                    1000             2               
   119 r.123                   -1000         -1001               
   120 r.124                    2000       8.45737               
   121 r.125                       2             2               
   122 r.126                      -2         -1001               
   123 r.127                 2.72612      0.845278               
   124 r.128                    1000             2               
   125 r.129                   -1000         -1001               
   126 r.130                 2001.86       8.58125               
   127 r.131                       2             2               
   128 r.132                      -2         -1001               
   129 r.133                -998.119      -999.897               
   130 r.134                    1000             2               
   131 r.135                   -1000         -1001               
   132 r.136                    1001      -997.684               
   133 r.137                       2             2               
   134 r.138                      -2         -1001               
   135 r.139                 -0.0752      -999.624               
   136 r.140                    1000             2               
   137 r.141                   -1000         -1001               
   138 r.142                    2000      -996.321               
   139 r.143                -999.549      -999.925               
   140 r.144                 1.31601      -998.379               
   141 r.145                -999.549      -999.925               
   142 r.146                 1.31601      -998.379               
   143 r.147                -995.892      -998.618               
   144 r.148                 4.10802      -996.612               
   145 r.149                -996.757      -998.618               
   146 r.150                 3.24291      -996.612               
   147 r.151                 4.10802      -998.646               
   148 r.152                -995.892      -996.757               
   149 r.153                 3.24291      -998.646               
   150 r.154                -996.757      -996.757               
   151 r.155                       2             2               
   152 r.156                      -2         -1001               
   153 r.157                 998.984      0.865111               
   154 r.158                    1000             2               
   155 r.159                   -1000         -1001               
   156 r.160                    2999       8.45737               
   157 r.161                       2             2               
   158 r.162                      -2         -1001               
   159 r.163                0.845278      0.845278               
   160 r.164                    1000             2               
   161 r.165                   -1000         -1001               
   162 r.166                 3000.86       8.58125               
   163 r.167                       2             2               
   164 r.168                      -2         -1001               
   165 r.169                 998.119        0.0752               
   166 r.170                    1000             2               
   167 r.171                   -1000         -1001               
   168 r.172                    2999       1.62139               
   169 r.173                       2             2               
   170 r.174                      -2         -1001               
   171 r.175                -1.95604      -999.624               
   172 r.176                    1000             2               
   173 r.177                   -1000         -1001               
   174 r.178                    2999      -996.321               
   175 r.179                -997.668      -999.897               
   176 r.180                -997.684      -997.684               
   177 r.181                -997.668      -999.897               
   178 r.182                -997.684      -997.684               
   179 r.183                -997.773      -998.618               
   180 r.184                 2.22718      -996.612               
   181 r.185                 2.24314      -998.618               
   182 r.186                 1002.24      -996.612               
   183 r.187                    1001             2               
   184 r.188                   -1001         -1001               
   185 r.189                 2002.23      -998.646               
   186 r.190                    1001             2               
   187 r.191                   -1001         -1001               
   188 r.192                 3002.24      -996.757               
   189 r.193                       2             2               
   190 r.194                      -2         -1001               
   191 r.195                0.940311      0.865111               
   192 r.196                    1000             2               
   193 r.197                   -1000         -1001               
   194 r.198                    2000       8.45737               
   195 r.199                       2             2               
   196 r.200                      -2         -1001               
   197 r.201                 2.80132      0.845278               
   198 r.202                    1000             2               
   199 r.203                   -1000         -1001               
   200 r.204                 2001.86       8.58125               
   201 r.205                       2             2               
   202 r.206                      -2         -1001               
   203 r.207                  0.0752        0.0752               
   204 r.208                    1000             2               
   205 r.209                   -1000         -1001               
   206 r.210                    2000       1.62139               
   207 r.211                       2             2               
   208 r.212                      -2         -1001               
   209 r.213                 1.95604         0.103               
   210 r.214                    1000             2               
   211 r.215                   -1000         -1001               
   212 r.216                    1001       2.31578               
   213 r.217                -999.624      -999.624               
   214 r.218                 1.31601      -996.321               
   215 r.219                -999.624      -999.624               
   216 r.220                 1.31601      -996.321               
   217 r.221                       2             2               
   218 r.222                      -2         -1001               
   219 r.223                -995.817      -998.618               
   220 r.224                    1000             2               
   221 r.225                   -1000         -1001               
   222 r.226                 2003.24      -996.612               
   223 r.227                 4.18322      -998.646               
   224 r.228                -995.817      -996.757               
   225 r.229                 3.24291      -998.646               
   226 r.230                -996.757      -996.757               
   227 r.231                -995.441      -998.618               
   228 r.232                 4.55892      -996.612               
   229 r.233                -995.441      -998.618               
   230 r.234                 4.55892      -996.612               
   231 r.235                       2             2               
   232 r.236                      -2         -1001               
   233 r.237                 995.817        0.3757               
   234 r.238                    1000             2               
   235 r.239                   -1000         -1001               
   236 r.240                 1996.76       3.67931               
   237 r.241                    1001             2               
   238 r.242                   -1001         -1001               
   239 r.243                    2000      -998.646               
   240 r.244                    1001             2               
   241 r.245                   -1001         -1001               
   242 r.246                    2000      -996.757               
   243 r.247                    1001             2               
   244 r.248                   -1001         -1001               
   245 r.249                 1998.62      0.845278               
   246 r.250                    1001             2               
   247 r.251                   -1001         -1001               
   248 r.252                 1998.62       8.58125               
   249 r.253                    1001             2               
   250 r.254                   -1001         -1001               
   251 r.255                 1997.77         0.103               
   252 r.256                    1001             2               
   253 r.257                   -1001         -1001               
   254 r.258                 997.757       2.31578               
   255 r.259                    1001             2               
   256 r.260                   -1001         -1001               
   257 r.261                    2000        1.3819               
   258 r.262                    1001             2               
   259 r.263                   -1001         -1001               
   260 r.264                    2000        3.3882               

   No. Column name       Activity     Lower bound   Upper bound
------ ------------    ------------- ------------- -------------
     1 tt                    4.60502             0               
     2 s_1_1        *              1             0             1 
     3 t_1_1                 3.24291             0               
     4 s_2_1        *              0             0             1 
     5 t_2_1                 3.24291             0               
     6 s_1_2        *              1             0             1 
     7 t_1_2                  1.3819             0               
     8 s_2_2        *              0             0             1 
     9 t_2_2                  1.3819             0               
    10 s_1_3        *              1             0             1 
    11 t_1_3                 4.10802             0               
    12 s_2_3        *              0             0             1 
    13 t_2_3                 3.24291             0               
    14 s_1_4        *              1             0             1 
    15 t_1_4                 2.22718             0               
    16 s_2_4        *              0             0             1 
    17 t_2_4                 1002.24             0               
    18 s_1_5        *              1             0             1 
    19 t_1_5                 4.18322             0               
    20 s_2_5        *              0             0             1 
    21 t_2_5                 3.24291             0               
    22 s_1_6        *              1             0             1 
    23 t_1_6                 4.55892             0               
    24 s_2_6        *              0             0             1 
    25 t_2_6                 4.55892             0               
    26 s_1_7        *              1             0             1 
    27 t_1_7                       0             0               
    28 s_2_7        *              0             0             1 
    29 t_2_7                       0             0               
    30 s_1_8        *              0             0             1 
    31 t_1_8                       0             0               
    32 s_2_8        *              1             0             1 
    33 t_2_8                       0             0               
    34 r_1_1_2      *              0             0             1 
    35 u_1_1_2      *              1             0             1 
    36 r_2_1_2      *              1             0             1 
    37 u_2_1_2      *              0             0             1 
    38 r_1_1_3      *              0             0             1 
    39 u_1_1_3      *              0             0             1 
    40 r_2_1_3      *              1             0             1 
    41 u_2_1_3      *              0             0             1 
    42 r_1_1_4      *              0             0             1 
    43 u_1_1_4      *              1             0             1 
    44 r_2_1_4      *              1             0             1 
    45 u_2_1_4      *              0             0             1 
    46 r_1_1_5      *              0             0             1 
    47 u_1_1_5      *              0             0             1 
    48 r_2_1_5      *              1             0             1 
    49 u_2_1_5      *              0             0             1 
    50 r_1_2_3      *              0             0             1 
    51 u_1_2_3      *              0             0             1 
    52 r_2_2_3      *              1             0             1 
    53 u_2_2_3      *              0             0             1 
    54 r_1_2_4      *              0             0             1 
    55 u_1_2_4      *              0             0             1 
    56 r_2_2_4      *              1             0             1 
    57 u_2_2_4      *              0             0             1 
    58 r_1_2_5      *              0             0             1 
    59 u_1_2_5      *              0             0             1 
    60 r_2_2_5      *              1             0             1 
    61 u_2_2_5      *              0             0             1 
    62 r_1_2_8      *              1             0             1 
    63 u_1_2_8      *              0             0             1 
    64 r_2_2_8      *              1             0             1 
    65 u_2_2_8      *              0             0             1 
    66 r_1_3_4      *              0             0             1 
    67 u_1_3_4      *              1             0             1 
    68 r_2_3_4      *              1             0             1 
    69 u_2_3_4      *              0             0             1 
    70 r_1_3_5      *              0             0             1 
    71 u_1_3_5      *              0             0             1 
    72 r_2_3_5      *              1             0             1 
    73 u_2_3_5      *              0             0             1 
    74 r_1_4_5      *              0             0             1 
    75 u_1_4_5      *              0             0             1 
    76 r_2_4_5      *              1             0             1 
    77 u_2_4_5      *              0             0             1 
    78 r_1_4_8      *              1             0             1 
    79 u_1_4_8      *              0             0             1 
    80 r_2_4_8      *              1             0             1 
    81 u_2_4_8      *              0             0             1 
    82 r_1_5_7      *              0             0             1 
    83 u_1_5_7      *              1             0             1 
    84 r_2_5_7      *              1             0             1 
    85 u_2_5_7      *              0             0             1 
    86 r_1_7_8      *              1             0             1 
    87 u_1_7_8      *              0             0             1 
    88 r_2_7_8      *              1             0             1 
    89 u_2_7_8      *              0             0             1 

Integer feasibility conditions:

KKT.PE: max.abs.err = 4.55e-13 on row 162
        max.rel.err = 7.57e-17 on row 162
        High quality

KKT.PB: max.abs.err = 2.91e-16 on row 203
        max.rel.err = 2.71e-16 on row 203
        High quality

End of output
